JulietBench/Juliet_Based_Patch_Bench/FFmpeg/CWE-189-Numeric-Errors/CVE_2013_7010_454a11a1c9c686c78aa97954306fb63453299760/Resultadd_bytes_c_Snippet_patch2NEQ.smt2
; benchmark generated from python API
(set-info :status unknown)
(declare-fun R () (_ BitVec 32))
(declare-fun rdi () (_ BitVec 64))
(assert
 (let (($x216 (and (distinct (_ bv50 32) R) true)))
 (let (($x228 (= (_ bv50 32) R)))
 (let ((?x6 ((_ extract 31 0) rdi)))
 (let ((?x7 ((_ sign_extend 32) ?x6)))
 (let ((?x9 (bvadd ?x7 (_ bv18446744073709551608 64))))
 (let (($x37 (bvuge ?x9 (_ bv0 64))))
 (let (($x36 (bvult ?x9 (_ bv8 64))))
 (let (($x208 (and $x36 $x37 $x228)))
 (let (($x222 (= (_ bv58 32) R)))
 (let (($x105 (bvuge ?x9 (_ bv8 64))))
 (let (($x34 (bvult ?x9 (_ bv16 64))))
 (let (($x223 (and $x34 $x105 $x37 $x222)))
 (let (($x220 (= (_ bv66 32) R)))
 (let (($x122 (bvuge ?x9 (_ bv16 64))))
 (let (($x219 (bvult ?x9 (_ bv24 64))))
 (let (($x196 (and $x219 $x122 $x105 $x37 $x220)))
 (let (($x117 (or $x196 $x223 $x208)))
 (let (($x116 (not $x117)))
 (let (($x211 (and $x116 $x216)))
 (let (($x204 (and $x117 $x228)))
 (let (($x118 (or $x204 $x211)))
 (not $x118)))))))))))))))))))))))
(check-sat)
